language ESSENCE' 1.0

letting jobs = 102
letting horizon = 793
letting resourcesRenew = 2
letting resourcesNonrenew = 2
letting resourceLimits = [32, 35, 347, 453]
letting successors = [[2, 3, 4, 5, 6, 7, 9, 11, 12, 14, 16, 18, 23, 24, 25], [49, 44, 33, 19, 17, 15, 10, 8], [45, 43, 40, 38, 32, 22, 20, 19, 15, 13], [69, 52, 49, 45, 39, 38, 36, 35, 34, 29, 28, 26, 15], [69, 52, 49, 48, 45, 39, 38, 35, 34, 28, 26, 15], [53, 52, 51, 45, 43, 38, 37, 20, 17], [58, 53, 51, 50, 49, 46, 37, 35, 34, 33, 29, 27], [47, 46, 40, 35, 34, 30, 27, 21], [53, 44, 34, 32, 31, 26, 17], [69, 52, 51, 41, 39, 28, 26], [69, 63, 61, 59, 58, 50, 49, 45, 43, 41, 39, 37, 35], [69, 61, 56, 52, 51, 50, 45, 42, 41, 38, 36], [51, 37, 17], [81, 69, 61, 58, 51, 50, 48, 46, 42, 41, 37, 35], [81, 63, 61, 58, 56, 55, 53, 51, 50, 47, 46, 41, 37], [69, 56, 52, 48, 45, 34, 26], [69, 59, 58, 50, 48, 42, 41, 39, 35], [59, 58, 57, 56, 51, 47, 42, 38, 37, 35], [69, 57, 56, 52, 26], [81, 58, 57, 56, 49, 47, 44, 35, 34], [64, 63, 58, 52, 51, 45, 41, 39, 38], [69, 52, 51, 46, 41, 29], [81, 69, 67, 61, 58, 54, 51, 49, 48, 47, 42], [78, 77, 73, 69, 68, 67, 65, 58, 56, 54, 51, 48, 40], [79, 69, 68, 59, 57, 54, 52, 50, 44, 39], [101, 81, 66, 61, 59, 55, 47, 42, 37], [74, 69, 66, 64, 57, 52, 45, 42, 38], [101, 81, 79, 74, 65, 64, 58, 56, 55, 54, 47, 42], [81, 77, 73, 68, 67, 66, 62, 59, 57, 56, 54, 48], [101, 81, 78, 63, 58, 55, 50, 37], [74, 66, 64, 59, 57, 56, 55, 38], [79, 78, 77, 76, 69, 68, 67, 65, 63, 62, 58, 56, 55, 51], [101, 80, 79, 66, 59, 55, 52, 39], [101, 80, 79, 77, 74, 73, 70, 67, 62, 61, 60, 59, 54], [101, 97, 80, 79, 77, 76, 73, 66, 64, 62, 60, 55, 54], [97, 79, 78, 77, 67, 65, 64, 62, 59, 58, 55], [79, 77, 76, 74, 73, 70, 68, 67, 65, 64, 62, 60, 54], [101, 100, 97, 86, 81, 79, 78, 77, 76, 73, 65, 62, 60, 54], [81, 77, 76, 74, 73, 70, 67, 65, 62, 56], [101, 100, 97, 91, 81, 79, 74, 72, 71, 66, 62, 59], [100, 79, 77, 73, 65, 62, 57, 54], [96, 95, 94, 91, 80, 78, 76, 73, 72, 68, 63, 62, 60], [98, 87, 80, 78, 77, 70, 66, 65, 64, 56], [96, 86, 77, 76, 71, 62, 61, 55], [97, 96, 81, 80, 76, 75, 68, 62, 55], [100, 70, 65, 62, 60, 59, 54], [100, 99, 98, 97, 96, 95, 93, 92, 90, 89, 77, 76, 72, 71, 70, 68], [97, 86, 79, 74, 64, 55], [101, 100, 97, 96, 90, 86, 84, 83, 79, 78, 77, 71, 65, 62], [99, 98, 97, 95, 93, 92, 91, 90, 89, 87, 76, 72, 71, 70, 67], [101, 100, 99, 97, 94, 93, 91, 90, 89, 87, 86, 85, 84, 80, 74, 71], [98, 96, 92, 90, 87, 86, 81, 78, 73, 71, 65], [99, 98, 97, 90, 89, 88, 87, 86, 85, 84, 80, 77, 75, 65], [98, 96, 95, 94, 93, 92, 90, 89, 87, 85, 84, 83, 71], [100, 99, 95, 93, 92, 91, 90, 89, 88, 87, 72, 70], [97, 96, 95, 89, 86, 60], [101, 98, 97, 93, 92, 87, 86, 84, 80, 78, 75], [100, 99, 94, 91, 89, 88, 87, 85, 84, 66], [99, 94, 93, 90, 89, 87, 86, 84, 82, 76], [99, 92, 90, 85, 84, 71], [97, 95, 92, 78, 75], [98, 93, 92, 89, 87, 82], [98, 97, 92, 86, 83, 82], [91, 71], [94, 93, 91, 82], [96, 86, 83, 82], [100, 86, 84, 83], [87, 86, 85, 83], [97, 91, 90, 82], [94, 84, 83], [88, 75], [85, 83], [84, 83], [96, 95], [82], [83], [91], [85], [89], [83], [95], [102], [102], [102], [102], [102], [102], [102], [102], [102], [102], [102], [102], [102], [102], [102], [102], [102], [102], [102], [102], []]
letting durations = [[0], [1, 1, 3], [3, 8, 9], [1, 4, 6], [3, 5, 6], [4, 9, 9], [6, 7, 8], [1, 3, 5], [2, 3, 4], [5, 5, 9], [2, 4, 8], [1, 7, 8], [1, 2, 3], [1, 9, 10], [5, 6, 7], [1, 5, 8], [3, 6, 10], [2, 5, 10], [7, 10, 10], [3, 10, 10], [3, 9, 9], [1, 2, 8], [4, 6, 9], [1, 3, 8], [5, 5, 7], [4, 6, 6], [1, 2, 3], [6, 7, 10], [1, 5, 6], [5, 7, 9], [1, 6, 10], [3, 5, 8], [4, 5, 6], [1, 8, 10], [5, 9, 10], [1, 2, 8], [3, 6, 9], [1, 3, 7], [1, 3, 8], [4, 5, 9], [1, 8, 10], [3, 7, 9], [3, 3, 8], [3, 8, 10], [4, 8, 10], [7, 7, 8], [2, 3, 10], [3, 4, 10], [2, 4, 5], [1, 7, 9], [3, 6, 7], [3, 4, 9], [2, 3, 10], [4, 8, 8], [8, 9, 9], [1, 6, 7], [4, 5, 7], [5, 8, 10], [1, 7, 7], [4, 5, 10], [3, 6, 7], [1, 4, 9], [4, 5, 6], [2, 3, 8], [5, 6, 10], [2, 5, 10], [1, 3, 3], [5, 7, 9], [2, 8, 9], [3, 8, 9], [2, 7, 10], [1, 3, 9], [4, 6, 7], [1, 3, 10], [4, 8, 10], [5, 6, 9], [1, 1, 5], [3, 6, 7], [2, 5, 7], [1, 2, 7], [1, 3, 8], [7, 8, 9], [1, 3, 9], [2, 6, 10], [4, 5, 7], [4, 5, 6], [3, 4, 6], [7, 8, 10], [1, 3, 4], [5, 6, 7], [4, 5, 8], [2, 10, 10], [1, 2, 4], [3, 7, 10], [1, 2, 6], [2, 3, 6], [5, 8, 9], [2, 7, 9], [1, 2, 3], [4, 5, 7], [4, 6, 8], [0]]
letting resourceUsage = [[[0, 0, 0, 0]], [[5, 5, 0, 5], [3, 5, 8, 0], [3, 5, 0, 1]], [[2, 2, 0, 3], [1, 2, 0, 3], [1, 2, 0, 2]], [[3, 4, 0, 7], [3, 2, 0, 5], [3, 2, 4, 0]], [[5, 4, 0, 7], [4, 3, 2, 0], [3, 3, 2, 0]], [[2, 3, 9, 0], [2, 3, 0, 9], [2, 3, 8, 0]], [[2, 5, 4, 0], [2, 3, 3, 0], [2, 3, 0, 7]], [[4, 4, 5, 0], [4, 3, 2, 0], [4, 3, 0, 4]], [[2, 1, 0, 9], [2, 1, 0, 8], [2, 1, 0, 7]], [[4, 2, 0, 6], [4, 2, 4, 0], [4, 2, 3, 0]], [[2, 4, 4, 0], [1, 3, 4, 0], [1, 3, 3, 0]], [[5, 3, 6, 0], [4, 3, 0, 9], [3, 2, 1, 0]], [[2, 1, 0, 9], [1, 1, 0, 6], [1, 1, 0, 2]], [[3, 4, 0, 8], [2, 4, 2, 0], [2, 4, 0, 3]], [[1, 3, 0, 6], [1, 3, 0, 5], [1, 3, 0, 4]], [[2, 2, 0, 7], [1, 1, 0, 6], [1, 1, 0, 5]], [[5, 2, 8, 0], [4, 2, 6, 0], [2, 2, 0, 3]], [[3, 3, 6, 0], [2, 3, 0, 7], [1, 3, 0, 7]], [[4, 3, 0, 10], [3, 3, 7, 0], [3, 2, 0, 8]], [[1, 1, 0, 8], [1, 1, 5, 0], [1, 1, 0, 3]], [[3, 2, 8, 0], [2, 1, 6, 0], [2, 1, 0, 8]], [[5, 3, 4, 0], [5, 3, 3, 0], [5, 3, 0, 5]], [[4, 5, 5, 0], [3, 4, 0, 5], [2, 3, 2, 0]], [[3, 4, 0, 5], [2, 3, 0, 3], [2, 3, 3, 0]], [[1, 2, 4, 0], [1, 2, 0, 3], [1, 2, 0, 2]], [[3, 4, 6, 0], [2, 2, 0, 6], [1, 2, 3, 0]], [[5, 5, 6, 0], [4, 3, 0, 7], [4, 2, 0, 7]], [[3, 4, 8, 0], [3, 3, 8, 0], [3, 3, 6, 0]], [[4, 3, 0, 7], [3, 3, 3, 0], [2, 3, 2, 0]], [[4, 3, 9, 0], [3, 3, 9, 0], [3, 3, 0, 7]], [[3, 4, 7, 0], [2, 3, 6, 0], [2, 2, 6, 0]], [[3, 4, 5, 0], [3, 3, 0, 8], [1, 2, 0, 7]], [[4, 1, 6, 0], [4, 1, 5, 0], [4, 1, 2, 0]], [[2, 4, 0, 7], [2, 4, 0, 5], [2, 4, 3, 0]], [[3, 4, 4, 0], [2, 4, 4, 0], [1, 4, 2, 0]], [[4, 3, 0, 8], [2, 3, 0, 5], [2, 3, 1, 0]], [[4, 5, 7, 0], [4, 5, 6, 0], [4, 5, 0, 4]], [[4, 2, 7, 0], [4, 2, 5, 0], [4, 2, 4, 0]], [[2, 3, 0, 8], [2, 1, 6, 0], [2, 1, 3, 0]], [[5, 4, 0, 5], [4, 2, 0, 4], [3, 2, 7, 0]], [[5, 4, 0, 9], [5, 2, 0, 9], [5, 2, 1, 0]], [[4, 5, 0, 10], [2, 5, 0, 8], [2, 5, 0, 7]], [[4, 3, 5, 0], [4, 2, 0, 5], [4, 1, 0, 4]], [[4, 3, 0, 10], [3, 2, 7, 0], [1, 2, 6, 0]], [[3, 4, 0, 9], [2, 3, 8, 0], [2, 1, 7, 0]], [[2, 5, 9, 0], [1, 4, 0, 1], [1, 3, 0, 1]], [[3, 3, 0, 5], [2, 3, 0, 5], [2, 2, 0, 2]], [[4, 4, 2, 0], [3, 3, 1, 0], [3, 2, 0, 6]], [[5, 1, 7, 0], [3, 1, 7, 0], [3, 1, 0, 4]], [[1, 1, 0, 9], [1, 1, 0, 8], [1, 1, 2, 0]], [[1, 2, 0, 8], [1, 2, 4, 0], [1, 2, 3, 0]], [[4, 3, 4, 0], [3, 3, 2, 0], [3, 3, 1, 0]], [[3, 1, 0, 9], [3, 1, 5, 0], [3, 1, 4, 0]], [[5, 5, 0, 6], [4, 3, 0, 5], [3, 2, 7, 0]], [[4, 2, 8, 0], [3, 1, 8, 0], [3, 1, 0, 4]], [[4, 4, 7, 0], [3, 4, 0, 7], [2, 3, 0, 5]], [[2, 1, 5, 0], [2, 1, 3, 0], [2, 1, 0, 6]], [[5, 3, 6, 0], [4, 2, 0, 7], [4, 2, 0, 6]], [[2, 4, 0, 4], [1, 3, 5, 0], [1, 1, 0, 2]], [[1, 2, 10, 0], [1, 2, 8, 0], [1, 2, 0, 6]], [[4, 4, 0, 7], [4, 3, 0, 5], [4, 2, 0, 5]], [[2, 3, 0, 9], [1, 2, 9, 0], [1, 2, 0, 9]], [[3, 3, 4, 0], [2, 2, 4, 0], [2, 2, 0, 4]], [[3, 5, 0, 6], [2, 3, 0, 5], [2, 3, 9, 0]], [[4, 2, 0, 7], [4, 2, 4, 0], [4, 2, 0, 3]], [[2, 4, 5, 0], [1, 4, 5, 0], [1, 4, 3, 0]], [[4, 3, 0, 7], [4, 2, 0, 7], [4, 2, 5, 0]], [[4, 3, 0, 6], [2, 2, 0, 5], [2, 1, 0, 3]], [[1, 5, 0, 9], [1, 5, 0, 6], [1, 5, 1, 0]], [[4, 3, 2, 0], [3, 1, 2, 0], [1, 1, 0, 4]], [[4, 5, 0, 1], [3, 3, 3, 0], [2, 3, 0, 1]], [[5, 2, 6, 0], [4, 2, 0, 7], [3, 2, 3, 0]], [[2, 4, 6, 0], [2, 3, 0, 6], [2, 3, 5, 0]], [[5, 4, 9, 0], [3, 4, 0, 7], [3, 3, 8, 0]], [[5, 5, 0, 10], [2, 4, 3, 0], [1, 4, 0, 8]], [[4, 4, 0, 9], [4, 2, 0, 9], [4, 2, 0, 8]], [[2, 5, 0, 3], [2, 4, 6, 0], [2, 4, 5, 0]], [[3, 4, 0, 6], [2, 3, 1, 0], [1, 3, 1, 0]], [[4, 4, 0, 7], [3, 2, 8, 0], [2, 1, 7, 0]], [[4, 3, 0, 8], [4, 2, 0, 8], [4, 2, 2, 0]], [[3, 3, 5, 0], [2, 3, 5, 0], [2, 1, 0, 4]], [[5, 2, 0, 10], [3, 1, 0, 4], [3, 1, 0, 1]], [[3, 4, 0, 8], [2, 4, 0, 7], [2, 4, 4, 0]], [[3, 3, 0, 7], [3, 1, 0, 5], [3, 1, 2, 0]], [[4, 5, 6, 0], [3, 4, 5, 0], [3, 4, 3, 0]], [[1, 5, 7, 0], [1, 2, 4, 0], [1, 2, 0, 1]], [[3, 4, 0, 6], [1, 4, 0, 5], [1, 4, 0, 4]], [[5, 3, 0, 6], [4, 3, 7, 0], [4, 2, 6, 0]], [[4, 1, 0, 4], [4, 1, 0, 3], [3, 1, 0, 3]], [[1, 5, 0, 9], [1, 4, 0, 4], [1, 4, 0, 3]], [[4, 3, 10, 0], [3, 3, 8, 0], [2, 3, 0, 1]], [[3, 2, 0, 6], [2, 2, 3, 0], [2, 2, 0, 4]], [[3, 1, 5, 0], [2, 1, 0, 9], [2, 1, 1, 0]], [[2, 2, 0, 5], [1, 1, 8, 0], [1, 1, 7, 0]], [[4, 2, 0, 6], [3, 2, 0, 5], [3, 2, 0, 4]], [[5, 4, 0, 7], [3, 4, 6, 0], [2, 4, 1, 0]], [[3, 4, 5, 0], [3, 4, 0, 5], [3, 4, 4, 0]], [[4, 5, 0, 6], [3, 4, 0, 5], [3, 4, 0, 3]], [[1, 5, 0, 6], [1, 3, 4, 0], [1, 2, 0, 1]], [[5, 4, 9, 0], [2, 4, 0, 7], [1, 2, 0, 6]], [[4, 5, 3, 0], [3, 4, 0, 6], [3, 4, 2, 0]], [[0, 0, 0, 0]]]
